50, 125063
5003, 29
5001, 25
5002, 39
5004, 46
5003, 50
5001, 20
5001, 33
5003, 19
5001, 10
5003, 43
5004, 26
5004, 2
5004, 30
5000, 4
5004, 22
5002, 19
5002, 15
5004, 38
5003, 13
5004, 17
5002, 39
5004, 2
5002, 45
5004, 42
5000, 32
5004, 8
5000, 38
5004, 13
5002, 12
5002, 13
5000, 30
5002, 9
5002, 31
5003, 2
5000, 32
5000, 17
5004, 14
5004, 43
5004, 5
5003, 5
5004, 42
5000, 22
5003, 32
5002, 36
5002, 9
5002, 36
5004, 44
5004, 12
5004, 14
5002, 4
